1 1355 7
2 1143 7
5 1121 7
6 1107 7
9 1106 7
10 1075 7
12 1064 7
14 1060 7
15 1053 7
18 1013 7



1 1339 7
2 1156 7
3 1144 7
4 1139 7
5 1074 7
13 1049 7
15 1037 7
38 1021 7
199 1016 7
415 1013 7



1 1264 7
2 1157 7
3 1146 7
4 1104 7
8 1071 7
11 1067 7
15 1032 7
49 1030 7
224 1027 7
536 1025 7
680 1003 7



1 1327 7
2 1139 7
3 1126 7
4 1083 7
6 1049 7
33 1048 7
71 1041 7
80 1033 7
136 1027 7
168 1011 7
664 1010 7



1 1394 7
2 1133 7
3 1128 7
4 1127 7
5 1078 7
9 1051 7
45 1050 7
63 1040 7
70 1013 7
888 1000 7



